db/data/127202063131821929814077177271241818434.z3.out
-------------------
2500.219153213
